(set-logic UF)
(declare-sort S1 0)
(declare-sort S2 0)
(declare-sort S3 0)
(declare-sort S4 0)
(declare-sort S5 0)
(declare-sort S6 0)
(declare-sort S7 0)
(declare-sort S8 0)
(declare-sort S9 0)
(declare-sort S10 0)
(declare-sort S11 0)
(declare-sort S12 0)
(declare-fun f1 () S1)
(declare-fun f2 () S1)
(declare-fun f3 (S2 S3) S1)
(declare-fun f4 () S2)
(declare-fun f5 (S4 S3) S3)
(declare-fun f6 (S5 S3) S4)
(declare-fun f7 () S5)
(declare-fun f8 () S5)
(declare-fun f9 () S4)
(declare-fun f10 () S4)
(declare-fun f11 () S4)
(declare-fun f12 () S3)
(declare-fun f13 () S3)
(declare-fun f14 () S3)
(declare-fun f15 (S6 S3) S2)
(declare-fun f16 () S6)
(declare-fun f17 () S2)
(declare-fun f18 (S7 S8) S8)
(declare-fun f19 (S9 S8) S7)
(declare-fun f20 () S9)
(declare-fun f21 () S8)
(declare-fun f22 (S10 S3) S8)
(declare-fun f23 () S10)
(declare-fun f24 () S9)
(declare-fun f25 () S3)
(declare-fun f26 () S8)
(declare-fun f27 (S11 S8) S1)
(declare-fun f28 (S12 S8) S11)
(declare-fun f29 () S12)
(assert (not (=> (and (= (f5 f10 (f5 f11 f25)) (f5 f9 (f5 f10 (f5 f11 f25)))) (= (f5 f11 (f5 f10 (f5 f11 f25))) (f5 f9 (f5 f11 (f5 f10 (f5 f11 f25))))) (= (f3 f4 (f5 (f6 f7 (f5 (f6 f8 (f5 f9 (f5 f10 (f5 f10 (f5 f11 f25))))) f13)) (f5 f9 (f5 f11 f25)))) (f3 (f15 f16 (f5 f9 (f5 f11 (f5 f10 (f5 f11 f25))))) (f5 (f6 f7 (f5 (f6 f8 (f5 f9 (f5 f10 (f5 f10 (f5 f11 f25))))) f13)) (f5 f9 (f5 f11 f25)))))) (= (f3 f4 (f5 (f6 f7 (f5 (f6 f8 (f5 f9 (f5 f10 (f5 f10 (f5 f11 f25))))) f13)) (f5 f9 (f5 f11 f25)))) (f3 (f15 f16 (f5 f11 (f5 f9 (f5 f10 (f5 f11 f25))))) (f5 (f6 f7 (f5 (f6 f8 (f5 f9 (f5 f10 (f5 f10 (f5 f11 f25))))) f13)) (f5 f9 (f5 f11 f25))))))))
(assert (or (=> (and (= (f5 f10 (f5 f11 f25)) (f5 f9 (f5 f10 (f5 f11 f25)))) (= (f5 f11 (f5 f10 (f5 f11 f25))) (f5 f9 (f5 f11 (f5 f10 (f5 f11 f25))))) (= (f3 f4 (f5 (f6 f7 (f5 (f6 f8 (f5 f9 (f5 f10 (f5 f10 (f5 f11 f25))))) f13)) (f5 f9 (f5 f11 f25)))) (f3 (f15 f16 (f5 f9 (f5 f11 (f5 f10 (f5 f11 f25))))) (f5 (f6 f7 (f5 (f6 f8 (f5 f9 (f5 f10 (f5 f10 (f5 f11 f25))))) f13)) (f5 f9 (f5 f11 f25)))))) (= (f3 f4 (f5 (f6 f7 (f5 (f6 f8 (f5 f9 (f5 f10 (f5 f10 (f5 f11 f25))))) f13)) (f5 f9 (f5 f11 f25)))) (f3 (f15 f16 (f5 f11 (f5 f9 (f5 f10 (f5 f11 f25))))) (f5 (f6 f7 (f5 (f6 f8 (f5 f9 (f5 f10 (f5 f10 (f5 f11 f25))))) f13)) (f5 f9 (f5 f11 f25)))))) (=> (and (= (f5 f10 (f5 f11 f25)) (f5 f9 (f5 f10 (f5 f11 f25)))) (= (f5 f11 (f5 f10 (f5 f11 f25))) (f5 f9 (f5 f11 (f5 f10 (f5 f11 f25))))) (= (f3 f4 (f5 (f6 f7 (f5 (f6 f8 (f5 f9 (f5 f10 (f5 f10 (f5 f11 f25))))) f13)) (f5 f9 (f5 f11 f25)))) (f3 (f15 f16 (f5 f9 (f5 f11 (f5 f10 (f5 f11 f25))))) (f5 (f6 f7 (f5 (f6 f8 (f5 f9 (f5 f10 (f5 f10 (f5 f11 f25))))) f13)) (f5 f9 (f5 f11 f25)))))) (= (f3 f4 (f5 (f6 f7 (f5 (f6 f8 (f5 f9 (f5 f10 (f5 f10 (f5 f11 f25))))) f13)) (f5 f9 (f5 f11 f25)))) (f3 (f15 f16 (f5 f11 (f5 f9 (f5 f10 (f5 f11 f25))))) (f5 (f6 f7 (f5 (f6 f8 (f5 f9 (f5 f10 (f5 f10 (f5 f11 f25))))) f13)) (f5 f9 (f5 f11 f25))))))))
(check-sat)
(exit)
